p cnf 7230 16
-5232 5911 -5914 0
-5912 5914 0
-5747 -5749 -5917 0
-5739 -5745 -5915 0
5747 -5918 0
5739 -5916 0
5917 5918 0
5915 5916 0
-5911 5912 0
5749 -5918 0
5745 -5916 0
5232 -5912 0
5913 5914 0
5737 -5914 0
-5737 -5913 0
5909 5910 0
